nNurses = 87;
nHours = 34;
minHours = 9;
maxHours = 9;
maxConsec = 8;
maxPresence = 8;
demand = [21, 18, 13, 13, 15, 11, 10, 13, 9, 14, 19, 22, 17, 15, 18, 23, 20, 23, 21, 24, 24, 20, 15, 14, 14, 19, 17, 20, 15, 18, 16, 20, 15, 18];
